(declare-const X String)
; /\x2eswf([\x3f\x2f]|$)/Uim
(assert (str.in_re X (re.++ (str.to_re "/.swf") (re.union (str.to_re "?") (str.to_re "/")) (str.to_re "/Uim\u{a}"))))
; iebar\s+Referer\x3aThis
(assert (not (str.in_re X (re.++ (str.to_re "iebar") (re.+ (re.union (str.to_re " ") (str.to_re "\u{9}") (str.to_re "\u{a}") (str.to_re "\u{c}") (str.to_re "\u{d}"))) (str.to_re "Referer:This\u{a}")))))
(check-sat)

(exit)
